c This is QMaxSAT 2017 based on 14.07
c This is Glucose 3.0
c This is MiniSat 2.2.0
c WARNING: for repeatability, setting FPU to use double precision
c card = mrwto, comp = 0, pmodel = 0, narr = 2, mct = 24, verb = 0
cr firstCPXsol 0 0 0
c top = 81479
c |  Number of variables:    12790                                            |
c |  Number of clauses:      2763592                                          |
c |  Weight of hard clauses: 81479                                            |
c |  Number of soft clauses: 1104                                             |
c |  Number of unit soft clauses: 1104                                        |
c |  Maximum Cardinality (by unit): 162956       (162956      )               |
c last restart ## conflicts  :  0 577 
o 2053 | cpuTime 0.19283 s
c Sum of weights = 81478
c A number of soft clauses remained = 552
c MRWTO encoding for Pseudo-Boolean Constraints
c sizeMax=2053
c No.0 Divisor=13	generated by pow1
c No.1 Divisor=13	generated by pow1
c No.2 Divisor=13	generated by pow1
c p0= 13	p1= 13	p2= 13	
c number of digits = 4
c linkingVar[0].size = 13, linkingVar[1].size = 13, linkingVar[2].size = 13, linkingVar[3].size = 1, 
c Pseudo-Boolean Constraints: 12764 variables and 134398 clauses
c Sum of weights = 81478
c A number of soft clauses remained = 552
c MRWTO encoding for Pseudo-Boolean Constraints
c sizeMax=2053
c No.0 Divisor=13	generated by pow1
c No.1 Divisor=13	generated by pow1
c No.2 Divisor=13	generated by pow1
c p0= 13	p1= 13	p2= 13	
c number of digits = 4
c linkingVar[0].size = 13, linkingVar[1].size = 13, linkingVar[2].size = 13, linkingVar[3].size = 1, 
c Pseudo-Boolean Constraints: 12764 variables and 134398 clauses
c last restart ## conflicts  :  85 2440 
o 1688 | cpuTime 7.57391 s
c last restart ## conflicts  :  0 1707 
o 1615 | cpuTime 20.9208 s
c last restart ## conflicts  :  130 1280 
o 1609 | cpuTime 24.0234 s
c last restart ## conflicts  :  356 1520 
o 1444 | cpuTime 25.3404 s
c last restart ## conflicts  :  4 1596 
o 1414 | cpuTime 26.2073 s
c last restart ## conflicts  :  143 1504 
o 1398 | cpuTime 30.1106 s
c last restart ## conflicts  :  583 1241 
o 1387 | cpuTime 31.0796 s
c last restart ## conflicts  :  134 1256 
o 1269 | cpuTime 34.6464 s
c last restart ## conflicts  :  134 1172 
o 1252 | cpuTime 36.3459 s
c last restart ## conflicts  :  4 1482 
o 1165 | cpuTime 39.8006 s
c last restart ## conflicts  :  148 1286 
o 1137 | cpuTime 63.2633 s
c last restart ## conflicts  :  367 1114 
o 1098 | cpuTime 63.618 s
c last restart ## conflicts  :  302 1145 
o 1074 | cpuTime 86.479 s
c last restart ## conflicts  :  2762 957 
o 1070 | cpuTime 104.582 s
c last restart ## conflicts  :  3981 952 
o 1064 | cpuTime 203.835 s
c last restart ## conflicts  :  5457 955 
o 1061 | cpuTime 212.294 s
c last restart ## conflicts  :  801 996 
o 1060 | cpuTime 218.879 s
c last restart ## conflicts  :  1944 1063 
o 1040 | cpuTime 225.747 s
c last restart ## conflicts  :  1491 1095 
o 999 | cpuTime 249.413 s
c last restart ## conflicts  :  3334 1080 
o 925 | cpuTime 304.657 s
c last restart ## conflicts  :  2349 1084 
o 900 | cpuTime 499.857 s
c last restart ## conflicts  :  2182 1212 
o 843 | cpuTime 851.768 s
c last restart ## conflicts  :  9849 1101 
o 824 | cpuTime 1159.57 s
s UNKNOWN
c Search is stopped by a limit (maybe time-limit)
cr positiVarArr: [ | 12@1(1->12) | 59@1(3->11) | 206@1(9->14) | 233@1(10->17) | 256@1(11->16) | 287@1(12->23) | 297@1(13->9) | 322@1(14->10) | 361@1(16->1) | 387@1(17->3) | 541@1(23->13) | 582@2(1->6) | 620@2(2->20) | 649@2(4->1) | 696@2(5->24) | 703@2(6->7) | 728@2(7->8) | 765@2(8->21) | 914@2(15->2) | 1006@2(18->22) | 1023@2(19->15) | 1037@2(20->5) | 1074@2(21->18) | 1099@2(22->19) | 1132@2(24->4) | ]
cr the 1-th chain: [ 1->12->23->13->9->14->10->17->3->11->16->1 ] (#non-depot=10) {#cumul.=11}
cr the 2-th chain: [ 1->6->7->8->21->18->22->19->15->2->20->5->24->4->1 ] (#non-depot=13) {#cumul.=24}
c Latest Answer = 0 by 24 loops
c restarts              : 32888
c conflicts             : 13245622       (3687 /sec)
c decisions             : 36502605       (0.00 % random) (10161 /sec)
c propagations          : 17122831783    (4766531 /sec)
c conflict literals     : 3023422283     (42.16 % deleted)
c Memory used           : 857.00 MB
c CPU time              : 3592.3 s
